 Code  2133
 Dimension, Fixed Cost
   100        3000
 Facility, Client, Transportation Cost
     1       31           0
     1       44           2
     1       76           4
     1       79           3
     1       95           2
     1       96           3
     1       97           1
     1       98           4
     1       99           1
     1      100           1
     2        8           3
     2       12           1
     2       23           2
     2       40           2
     2       51           0
     2       53           2
     2       55           4
     2       61           2
     2       65           4
     2       69           0
     3       21           3
     3       28           0
     3       44           4
     3       47           0
     3       49           3
     3       64           1
     3       73           4
     3       74           1
     3       91           0
     3       93           3
     4        1           4
     4       16           0
     4       35           3
     4       38           3
     4       67           1
     4       71           1
     4       80           4
     4       85           0
     4       87           2
     4       99           3
     5        1           2
     5       18           0
     5       32           0
     5       33           4
     5       48           0
     5       55           3
     5       58           3
     5       73           0
     5       82           1
     5       90           0
     6       34           4
     6       43           2
     6       54           1
     6       70           4
     6       74           3
     6       79           2
     6       81           3
     6       83           1
     6       92           4
     6       96           1
     7        6           4
     7       40           3
     7       44           1
     7       52           0
     7       77           1
     7       79           1
     7       86           1
     7       93           4
     7       98           0
     7      100           3
     8       14           0
     8       22           4
     8       63           4
     8       73           1
     8       88           3
     8       95           3
     8       96           0
     8       98           0
     8       99           3
     8      100           3
     9        1           4
     9        8           4
     9       12           3
     9       18           4
     9       19           4
     9       23           0
     9       29           1
     9       32           0
     9       35           2
     9       46           3
    10        1           4
    10       22           0
    10       33           0
    10       39           2
    10       45           0
    10       55           3
    10       66           0
    10       85           4
    10       86           0
    10       91           4
    11        2           0
    11       14           3
    11       37           3
    11       40           0
    11       49           4
    11       74           2
    11       82           1
    11       83           1
    11       94           0
    11       95           3
    12       11           2
    12       26           1
    12       27           1
    12       42           4
    12       58           4
    12       60           1
    12       74           0
    12       95           0
    12       98           3
    12      100           0
    13        6           3
    13       10           4
    13       18           0
    13       19           3
    13       27           0
    13       49           3
    13       50           3
    13       66           3
    13       69           1
    13       86           4
    14        5           4
    14        7           1
    14       21           2
    14       27           1
    14       62           3
    14       74           0
    14       88           3
    14       90           0
    14       91           4
    14       93           0
    15        8           3
    15       18           2
    15       33           3
    15       41           1
    15       57           1
    15       59           4
    15       73           0
    15       88           2
    15       89           2
    15       97           1
    16        4           1
    16       13           1
    16       16           4
    16       25           1
    16       45           2
    16       46           3
    16       47           3
    16       50           0
    16       61           1
    16       62           1
    17       28           4
    17       53           1
    17       63           0
    17       72           1
    17       83           0
    17       92           2
    17       95           0
    17       97           1
    17       98           0
    17       99           3
    18        6           3
    18       13           3
    18       25           2
    18       26           4
    18       57           1
    18       63           1
    18       79           0
    18       85           2
    18       87           3
    18       89           2
    19        5           4
    19       14           3
    19       35           2
    19       46           0
    19       60           0
    19       68           4
    19       71           1
    19       74           3
    19       79           2
    19       81           3
    20       28           2
    20       31           1
    20       37           2
    20       41           1
    20       42           3
    20       48           1
    20       59           0
    20       61           0
    20       69           3
    20       73           3
    21        5           0
    21       23           2
    21       32           2
    21       39           1
    21       40           1
    21       46           4
    21       49           3
    21       67           3
    21       80           3
    21       87           2
    22        9           0
    22       45           3
    22       52           3
    22       58           2
    22       65           1
    22       71           2
    22       72           0
    22       92           1
    22       97           1
    22       98           1
    23        4           3
    23        8           1
    23       12           0
    23       16           3
    23       41           4
    23       42           3
    23       44           0
    23       45           1
    23       46           3
    23       72           2
    24       11           3
    24       13           3
    24       35           2
    24       51           0
    24       55           2
    24       56           1
    24       68           1
    24       90           3
    24       95           3
    24       97           3
    25        5           0
    25       11           1
    25       23           4
    25       25           1
    25       26           0
    25       36           4
    25       42           4
    25       49           1
    25       55           1
    25       58           0
    26        4           4
    26       10           4
    26       25           3
    26       32           4
    26       37           1
    26       50           3
    26       69           4
    26       70           0
    26       71           4
    26       72           2
    27        3           0
    27        5           4
    27        6           1
    27        9           0
    27       11           4
    27       29           2
    27       30           3
    27       34           0
    27       53           1
    27       59           2
    28       12           0
    28       13           2
    28       14           2
    28       20           0
    28       22           2
    28       28           2
    28       29           0
    28       32           3
    28       33           4
    28       34           1
    29        9           0
    29       20           2
    29       21           3
    29       44           0
    29       63           2
    29       70           2
    29       74           0
    29       75           0
    29       77           3
    29       89           4
    30        4           1
    30       21           1
    30       26           3
    30       27           2
    30       31           2
    30       47           4
    30       54           2
    30       61           0
    30       67           1
    30       79           1
    31        3           1
    31       14           1
    31       25           1
    31       30           3
    31       44           1
    31       59           0
    31       63           3
    31       66           2
    31       81           3
    31       83           0
    32        3           3
    32        8           3
    32       13           3
    32       14           1
    32       27           1
    32       35           1
    32       40           3
    32       55           3
    32       57           0
    32       63           4
    33        9           2
    33       20           1
    33       22           3
    33       28           2
    33       30           2
    33       36           3
    33       57           0
    33       61           4
    33       78           3
    33       83           1
    34       23           4
    34       24           4
    34       36           2
    34       42           3
    34       43           0
    34       48           0
    34       50           0
    34       59           3
    34       92           2
    34       93           1
    35        7           3
    35       10           2
    35       20           4
    35       34           2
    35       40           2
    35       56           1
    35       58           4
    35       71           4
    35       77           2
    35       85           2
    36        6           2
    36        7           4
    36       25           0
    36       35           2
    36       43           3
    36       86           2
    36       92           1
    36       94           4
    36       96           2
    36       97           0
    37       33           2
    37       38           3
    37       46           4
    37       47           4
    37       57           3
    37       66           1
    37       78           3
    37       80           3
    37       82           0
    37       91           1
    38       11           2
    38       17           3
    38       24           0
    38       29           3
    38       41           3
    38       54           2
    38       76           1
    38       82           4
    38       84           3
    38       86           4
    39        4           2
    39        5           0
    39        6           3
    39        9           0
    39       13           0
    39       35           3
    39       38           3
    39       64           0
    39       70           1
    39       86           2
    40       21           1
    40       31           1
    40       53           3
    40       56           3
    40       57           0
    40       62           0
    40       70           3
    40       72           1
    40       84           4
    40       87           1
    41        2           1
    41       19           1
    41       24           4
    41       34           1
    41       40           3
    41       44           0
    41       51           1
    41       61           4
    41       80           0
    41       84           3
    42       17           2
    42       32           0
    42       34           4
    42       63           2
    42       69           4
    42       70           4
    42       80           2
    42       87           1
    42       88           3
    42       90           3
    43        4           0
    43       10           3
    43       29           0
    43       30           4
    43       36           4
    43       59           1
    43       84           1
    43       89           1
    43       91           3
    43       99           2
    44        8           4
    44       15           1
    44       16           0
    44       18           2
    44       21           0
    44       28           1
    44       61           0
    44       75           3
    44       87           4
    44       90           4
    45       25           4
    45       27           0
    45       40           3
    45       44           3
    45       52           0
    45       54           3
    45       58           1
    45       64           0
    45       75           4
    45       82           2
    46        4           3
    46        5           2
    46        6           3
    46       22           1
    46       78           4
    46       84           3
    46       86           1
    46       96           3
    46       99           3
    46      100           4
    47        2           2
    47       21           0
    47       28           4
    47       76           2
    47       80           2
    47       82           3
    47       84           4
    47       88           1
    47       92           1
    47       93           3
    48        3           4
    48        8           1
    48       18           1
    48       23           4
    48       42           0
    48       56           4
    48       67           2
    48       75           3
    48       76           3
    48       77           3
    49        2           3
    49       24           0
    49       37           3
    49       59           3
    49       66           0
    49       81           3
    49       83           1
    49       85           1
    49       87           4
    49       91           3
    50        6           3
    50        9           4
    50       13           1
    50       17           1
    50       19           4
    50       20           2
    50       29           3
    50       36           1
    50       37           2
    50       42           2
    51       10           2
    51       16           4
    51       22           1
    51       32           4
    51       53           0
    51       65           4
    51       80           3
    51       81           4
    51       82           4
    51       93           2
    52        6           2
    52       35           2
    52       43           3
    52       48           4
    52       49           0
    52       50           0
    52       61           1
    52       65           4
    52       83           1
    52       92           1
    53        3           0
    53       11           2
    53       15           2
    53       33           2
    53       39           1
    53       42           2
    53       43           4
    53       45           3
    53       56           2
    53       58           4
    54       28           2
    54       36           1
    54       39           0
    54       53           2
    54       60           4
    54       68           2
    54       69           3
    54       70           0
    54       89           2
    54       95           1
    55        3           1
    55       12           4
    55       41           1
    55       46           2
    55       48           2
    55       56           0
    55       59           4
    55       66           0
    55       74           2
    55       76           3
    56        2           1
    56       19           4
    56       41           3
    56       61           0
    56       62           3
    56       64           2
    56       65           4
    56       71           3
    56       76           2
    56       85           3
    57        3           2
    57        7           4
    57       42           0
    57       46           2
    57       52           0
    57       54           4
    57       66           3
    57       67           0
    57       82           0
    57       89           0
    58       23           1
    58       26           0
    58       39           3
    58       52           4
    58       66           2
    58       79           0
    58       89           0
    58       90           3
    58       93           1
    58       95           0
    59       14           1
    59       17           2
    59       41           3
    59       48           2
    59       50           2
    59       55           1
    59       65           4
    59       67           0
    59       84           3
    59       91           3
    60       21           0
    60       30           1
    60       55           1
    60       80           1
    60       85           3
    60       89           2
    60       90           4
    60       97           3
    60       99           4
    60      100           1
    61       15           3
    61       38           4
    61       60           4
    61       61           1
    61       63           3
    61       64           3
    61       72           3
    61       76           1
    61       83           1
    61       99           4
    62        4           1
    62       16           3
    62       29           2
    62       32           4
    62       33           1
    62       50           4
    62       54           3
    62       56           0
    62       63           1
    62       69           1
    63        2           1
    63        6           4
    63        8           3
    63       39           1
    63       42           4
    63       53           3
    63       64           4
    63       65           4
    63       72           4
    63       75           3
    64       34           3
    64       35           2
    64       36           3
    64       59           2
    64       68           4
    64       73           0
    64       78           3
    64       80           0
    64       87           2
    64       88           3
    65        4           2
    65        7           1
    65       26           2
    65       36           1
    65       39           4
    65       47           2
    65       52           1
    65       64           0
    65       68           2
    65       73           0
    66       10           4
    66       11           3
    66       17           2
    66       19           1
    66       20           4
    66       27           1
    66       31           3
    66       51           1
    66       55           4
    66       60           3
    67        8           0
    67       20           3
    67       36           1
    67       38           1
    67       41           3
    67       45           4
    67       50           1
    67       76           2
    67       78           4
    67       94           2
    68       12           1
    68       18           0
    68       27           1
    68       31           4
    68       34           0
    68       40           2
    68       69           4
    68       75           1
    68       78           3
    68       83           3
    69        1           4
    69       14           3
    69       19           2
    69       28           2
    69       38           1
    69       43           2
    69       44           2
    69       45           2
    69       49           2
    69       54           3
    70       15           3
    70       17           2
    70       30           2
    70       33           1
    70       39           0
    70       55           1
    70       64           1
    70       68           4
    70       71           4
    70       75           3
    71        1           4
    71        7           1
    71       11           4
    71       17           2
    71       29           0
    71       33           0
    71       56           0
    71       58           4
    71       77           1
    71       88           1
    72        9           2
    72       16           2
    72       24           2
    72       39           0
    72       48           0
    72       70           2
    72       81           4
    72       84           2
    72       96           4
    72      100           3
    73       15           4
    73       32           1
    73       37           3
    73       47           3
    73       65           0
    73       71           2
    73       81           2
    73       82           4
    73       85           3
    73       94           2
    74       13           4
    74       20           2
    74       37           3
    74       52           2
    74       60           4
    74       68           4
    74       76           4
    74       91           3
    74       92           4
    74       98           2
    75       10           3
    75       24           2
    75       43           4
    75       46           3
    75       54           1
    75       60           2
    75       64           3
    75       68           3
    75       73           3
    75       87           1
    76       16           0
    76       27           3
    76       65           3
    76       67           3
    76       93           3
    76       96           3
    76       97           1
    76       98           3
    76       99           4
    76      100           2
    77        5           4
    77       11           4
    77       19           1
    77       21           1
    77       22           0
    77       45           4
    77       50           4
    77       54           0
    77       58           1
    77       77           4
    78        7           3
    78       12           4
    78       57           3
    78       62           4
    78       69           3
    78       75           2
    78       77           4
    78       79           1
    78       85           3
    78       88           4
    79        1           3
    79       12           0
    79       15           1
    79       16           1
    79       19           3
    79       25           1
    79       26           4
    79       30           4
    79       31           3
    79       43           3
    80        1           4
    80        3           1
    80        7           4
    80       14           1
    80       24           1
    80       32           3
    80       62           4
    80       72           3
    80       90           0
    80       94           1
    81       29           4
    81       30           0
    81       40           1
    81       51           0
    81       53           4
    81       56           3
    81       63           0
    81       65           1
    81       77           0
    81       89           1
    82        2           4
    82       12           1
    82       31           0
    82       38           0
    82       44           1
    82       50           4
    82       52           0
    82       57           0
    82       60           3
    82       68           2
    83       17           1
    83       27           4
    83       54           0
    83       59           3
    83       60           0
    83       79           1
    83       86           0
    83       94           1
    83       96           4
    83       97           2
    84        2           2
    84       35           4
    84       51           1
    84       62           1
    84       66           1
    84       81           3
    84       82           4
    84       85           2
    84       89           4
    84       91           3
    85        2           1
    85        3           1
    85        4           4
    85       10           3
    85       14           0
    85       38           3
    85       39           4
    85       46           1
    85       47           2
    85       51           3
    86        9           4
    86       34           3
    86       38           3
    86       47           0
    86       48           3
    86       56           2
    86       66           3
    86       71           2
    86       72           3
    86       88           2
    87       12           2
    87       22           2
    87       34           2
    87       47           0
    87       51           2
    87       57           3
    87       78           4
    87       92           4
    87       93           0
    87      100           2
    88        3           2
    88        7           0
    88       15           0
    88       41           0
    88       48           3
    88       51           2
    88       67           0
    88       77           0
    88       84           3
    88       92           2
    89        9           0
    89       10           2
    89       15           0
    89       24           0
    89       28           3
    89       49           4
    89       51           3
    89       60           2
    89       62           4
    89       75           0
    90        7           0
    90        8           1
    90       10           3
    90       13           3
    90       17           0
    90       18           2
    90       26           4
    90       30           1
    90       31           2
    90       52           1
    91       13           1
    91       24           4
    91       53           3
    91       78           1
    91       94           4
    91       96           1
    91       97           3
    91       98           3
    91       99           1
    91      100           3
    92        1           4
    92       20           1
    92       22           4
    92       45           1
    92       64           4
    92       83           1
    92       86           2
    92       90           1
    92       94           0
    92       95           4
    93       11           4
    93       18           3
    93       23           1
    93       24           1
    93       26           4
    93       41           3
    93       49           4
    93       57           1
    93       62           4
    93       77           0
    94        1           2
    94       25           4
    94       37           3
    94       52           3
    94       58           1
    94       67           3
    94       70           2
    94       78           1
    94       88           3
    94       91           4
    95        9           1
    95       15           0
    95       16           2
    95       19           0
    95       25           1
    95       29           4
    95       36           2
    95       62           3
    95       74           3
    95       76           4
    96        5           4
    96       30           4
    96       47           2
    96       67           4
    96       72           3
    96       73           2
    96       74           1
    96       94           1
    96       95           0
    96       98           2
    97        5           0
    97       20           0
    97       21           1
    97       37           0
    97       43           4
    97       45           4
    97       49           4
    97       68           2
    97       81           0
    97       90           0
    98        2           4
    98       17           1
    98       18           3
    98       23           0
    98       26           0
    98       31           2
    98       33           4
    98       69           1
    98       78           4
    98       79           3
    99       15           1
    99       23           4
    99       48           0
    99       70           3
    99       73           0
    99       81           3
    99       86           4
    99       93           1
    99       94           3
    99       96           0
   100       22           3
   100       37           2
   100       38           0
   100       43           1
   100       53           4
   100       71           1
   100       75           0
   100       80           2
   100       84           0
   100       87           2
